c uprop, v00.0, 
c reading from data/prog875.c.cnf
c done reading: 0.003844
p cnf 123 521
-68 -85 0
-72 -85 0
68 72 85 0
68 72 -91 0
-68 -72 -91 0
-68 72 91 0
68 -72 91 0
-74 85 0
-74 -76 0
74 76 -85 0
76 -82 -85 0
-76 -82 85 0
76 82 85 0
-76 82 -85 0
74 -84 0
-84 -86 0
-74 84 86 0
-74 86 -88 0
74 -86 -88 0
74 86 88 0
-74 -86 88 0
84 -89 0
-89 -93 0
-84 89 93 0
-71 -84 93 0
-71 84 -93 0
71 84 93 0
71 -84 -93 0
-66 89 0
-66 -73 0
66 73 -89 0
-65 73 -89 0
-65 -73 89 0
65 73 89 0
65 -73 -89 0
-63 66 0
-63 -79 0
63 -66 79 0
-62 -66 79 0
-62 66 -79 0
62 66 79 0
62 -66 -79 0
-60 63 0
-60 -83 0
60 -63 83 0
-59 -63 83 0
-59 63 -83 0
59 63 83 0
59 -63 -83 0
-58 -68 0
-58 -72 0
58 68 72 0
-57 68 72 0
-57 -68 -72 0
57 -68 72 0
57 68 -72 0
-56 58 0
-56 -76 0
56 -58 76 0
-55 -58 76 0
-55 58 -76 0
55 58 76 0
55 -58 -76 0
-54 56 0
-54 -86 0
54 -56 86 0
-53 -56 86 0
-53 56 -86 0
53 56 86 0
53 -56 -86 0
-52 54 0
-52 -93 0
52 -54 93 0
-54 93 -95 0
54 -93 -95 0
54 93 95 0
-54 -93 95 0
52 -96 0
-73 -96 0
-52 73 96 0
-52 73 -97 0
52 -73 -97 0
52 73 97 0
-52 -73 97 0
96 -98 0
-79 -98 0
79 -96 98 0
79 -96 -99 0
-79 96 -99 0
79 96 99 0
-79 -96 99 0
98 -100 0
-83 -100 0
83 -98 100 0
-69 83 -98 0
-69 -83 98 0
69 83 98 0
69 -83 -98 0
-77 -101 0
77 101 0
-94 -103 0
94 103 0
-80 -105 0
80 105 0
-107 -109 0
107 109 0
-104 -110 0
104 110 0
-108 -112 0
108 112 0
-113 -114 0
113 114 0
101 -115 0
-101 115 0
-101 -116 0
101 116 0
-101 -103 117 0
-103 -115 117 0
-101 -115 117 0
101 103 -117 0
103 115 -117 0
101 115 -117 0
103 -117 -118 0
101 -117 -118 0
115 -117 -118 0
-103 117 118 0
-101 117 118 0
-115 117 118 0
-101 -103 -115 118 0
101 103 115 -118 0
-103 -105 119 0
-105 -117 119 0
-103 -117 119 0
103 105 -119 0
105 117 -119 0
103 117 -119 0
105 -119 -120 0
103 -119 -120 0
117 -119 -120 0
-105 119 120 0
-103 119 120 0
-117 119 120 0
-103 -105 -117 120 0
103 105 117 -120 0
-105 -107 121 0
-107 -119 121 0
-105 -119 121 0
105 107 -121 0
107 119 -121 0
105 119 -121 0
107 -121 -122 0
105 -121 -122 0
119 -121 -122 0
-107 121 122 0
-105 121 122 0
-119 121 122 0
-105 -107 -119 122 0
105 107 119 -122 0
-107 -110 123 0
-110 -121 123 0
-107 -121 123 0
107 110 -123 0
110 121 -123 0
107 121 -123 0
-51 110 -123 0
-51 107 -123 0
-51 121 -123 0
51 -110 123 0
51 -107 123 0
51 -121 123 0
51 -107 -110 -121 0
-51 107 110 121 0
50 -110 -112 0
50 -112 -123 0
50 -110 -123 0
-50 110 112 0
-50 112 123 0
-50 110 123 0
-49 -50 112 0
-49 -50 110 0
-49 -50 123 0
49 50 -112 0
49 50 -110 0
49 50 -123 0
49 -110 -112 -123 0
-49 110 112 123 0
48 -112 -114 0
48 -50 -114 0
48 -50 -112 0
-48 112 114 0
-48 50 114 0
-48 50 112 0
-47 -48 114 0
-47 -48 112 0
-47 -48 50 0
47 48 -114 0
47 48 -112 0
47 48 -50 0
47 -50 -112 -114 0
-47 50 112 114 0
-46 114 0
-46 48 0
46 -48 -114 0
-45 -48 -114 0
-45 48 114 0
45 48 -114 0
45 -48 114 0
-44 118 0
44 -118 0
-43 -118 0
43 118 0
42 -101 -120 0
42 -44 -120 0
42 -44 -101 0
-42 101 120 0
-42 44 120 0
-42 44 101 0
-41 -42 120 0
-41 -42 101 0
-41 -42 44 0
41 42 -120 0
41 42 -101 0
41 42 -44 0
41 -44 -101 -120 0
-41 44 101 120 0
40 -103 -122 0
40 -42 -122 0
40 -42 -103 0
-40 103 122 0
-40 42 122 0
-40 42 103 0
-39 -40 122 0
-39 -40 103 0
-39 -40 42 0
39 40 -122 0
39 40 -103 0
39 40 -42 0
39 -42 -103 -122 0
-39 42 103 122 0
38 -51 -105 0
38 -40 -51 0
38 -40 -105 0
-38 51 105 0
-38 40 51 0
-38 40 105 0
-37 -38 51 0
-37 -38 105 0
-37 -38 40 0
37 38 -51 0
37 38 -105 0
37 38 -40 0
37 -40 -51 -105 0
-37 40 51 105 0
36 -49 -107 0
36 -38 -49 0
36 -38 -107 0
-36 49 107 0
-36 38 49 0
-36 38 107 0
-35 -36 49 0
-35 -36 107 0
-35 -36 38 0
35 36 -49 0
35 36 -107 0
35 36 -38 0
35 -38 -49 -107 0
-35 38 49 107 0
34 -47 -110 0
34 -36 -47 0
34 -36 -110 0
-34 47 110 0
-34 36 47 0
-34 36 110 0
-33 -34 47 0
-33 -34 110 0
-33 -34 36 0
33 34 -47 0
33 34 -110 0
33 34 -36 0
33 -36 -47 -110 0
-33 36 47 110 0
32 -45 -112 0
32 -34 -45 0
32 -34 -112 0
-32 45 112 0
-32 34 45 0
-32 34 112 0
-31 -32 45 0
-31 -32 112 0
-31 -32 34 0
31 32 -45 0
31 32 -112 0
31 32 -34 0
31 -34 -45 -112 0
-31 34 45 112 0
30 -46 -114 0
30 -32 -46 0
30 -32 -114 0
-30 46 114 0
-30 32 46 0
-30 32 114 0
-29 -30 46 0
-29 -30 114 0
-29 -30 32 0
29 30 -46 0
29 30 -114 0
29 30 -32 0
29 -32 -46 -114 0
-29 32 46 114 0
-28 37 0
28 -37 0
-27 -37 0
27 37 0
26 -35 -101 0
26 -28 -35 0
26 -28 -101 0
-26 35 101 0
-26 28 35 0
-26 28 101 0
-25 -26 35 0
-25 -26 101 0
-25 -26 28 0
25 26 -35 0
25 26 -101 0
25 26 -28 0
25 -28 -35 -101 0
-25 28 35 101 0
24 -33 -103 0
24 -26 -33 0
24 -26 -103 0
-24 33 103 0
-24 26 33 0
-24 26 103 0
-23 -24 33 0
-23 -24 103 0
-23 -24 26 0
23 24 -33 0
23 24 -103 0
23 24 -26 0
23 -26 -33 -103 0
-23 26 33 103 0
22 -31 -105 0
22 -24 -31 0
22 -24 -105 0
-22 31 105 0
-22 24 31 0
-22 24 105 0
-21 -22 31 0
-21 -22 105 0
-21 -22 24 0
21 22 -31 0
21 22 -105 0
21 22 -24 0
21 -24 -31 -105 0
-21 24 31 105 0
20 -29 -107 0
20 -22 -29 0
20 -22 -107 0
-20 29 107 0
-20 22 29 0
-20 22 107 0
-19 -20 29 0
-19 -20 107 0
-19 -20 22 0
19 20 -29 0
19 20 -107 0
19 20 -22 0
19 -22 -29 -107 0
-19 22 29 107 0
18 -30 -110 0
18 -20 -30 0
18 -20 -110 0
-18 30 110 0
-18 20 30 0
-18 20 110 0
-17 -18 30 0
-17 -18 110 0
-17 -18 20 0
17 18 -30 0
17 18 -110 0
17 18 -20 0
17 -20 -30 -110 0
-17 20 30 110 0
-16 112 0
-16 18 0
16 -18 -112 0
-15 -18 -112 0
-15 18 112 0
15 18 -112 0
15 -18 112 0
-14 114 0
-14 16 0
14 -16 -114 0
-13 -16 -114 0
-13 16 114 0
13 16 -114 0
13 -16 114 0
-12 -116 0
12 116 0
-11 -43 0
11 43 0
-41 -67 0
41 67 0
-39 -75 0
39 75 0
-27 -92 0
27 92 0
-25 -78 0
25 78 0
-10 -23 0
10 23 0
-21 -102 0
21 102 0
-19 -106 0
19 106 0
-17 -111 0
17 111 0
-9 -15 0
9 15 0
-8 -13 0
8 13 0
-7 -14 0
7 14 0
-6 68 0
-6 116 0
6 -68 -116 0
-68 -116 0
68 116 0
5 -43 -72 0
5 -6 -72 0
5 -6 -43 0
-5 43 72 0
-5 6 72 0
-5 6 43 0
5 -72 0
5 -43 0
5 -6 0
-6 -43 -72 0
4 -41 -76 0
4 -5 -76 0
4 -5 -41 0
-4 41 76 0
-4 5 76 0
-4 5 41 0
-4 76 0
-4 41 0
-4 5 0
5 41 76 0
3 -39 -86 0
3 -4 -86 0
3 -4 -39 0
-3 39 86 0
-3 4 86 0
-3 4 39 0
-3 86 0
-3 39 0
-3 4 0
4 39 86 0
2 -27 -93 0
2 -3 -93 0
2 -3 -27 0
-2 27 93 0
-2 3 93 0
-2 3 27 0
2 -93 0
2 -27 0
2 -3 0
-3 -27 -93 0
1 -25 -73 0
1 -2 -73 0
1 -2 -25 0
-1 25 73 0
-1 2 73 0
-1 2 25 0
1 -73 0
1 -25 0
1 -2 0
-2 -25 -73 0
-23 -79 90 0
-1 -79 90 0
-1 -23 90 0
23 79 -90 0
1 79 -90 0
1 23 -90 0
79 -90 0
23 -90 0
1 -90 0
1 23 79 0
-21 81 -83 0
81 -83 -90 0
-21 81 -90 0
21 -81 83 0
-81 83 90 0
21 -81 90 0
81 -83 0
-21 81 0
81 -90 0
-21 -83 -90 0
19 -87 0
81 -87 0
-19 -81 87 0
-19 81 0
19 -81 0
17 -70 0
-70 87 0
-17 70 -87 0
-17 87 0
17 -87 0
15 -64 0
-64 70 0
-15 64 -70 0
-15 70 0
15 -70 0
13 -61 0
-61 64 0
-13 61 -64 0
-13 64 0
13 -64 0
-14 -61 0
-14 61 0
14 -61 0
